Problem:    
Rows:       248
Columns:    89 (72 integer, 72 binary)
Non-zeros:  820
Status:     INTEGER OPTIMAL
Objective:  value = 175.675533 (MINimum)

   No.   Row name        Activity     Lower bound   Upper bound
------ ------------    ------------- ------------- -------------
     1 r.5                   175.676             0               
     2 r.6                    5.1668      -1973.16               
     3 r.7                   2175.68             0               
     4 r.8                  -1905.25      -1959.38               
     5 r.9                   2175.68             0               
     6 r.10                 -1964.98      -1970.14               
     7 r.11                  175.676             0               
     8 r.12                  8.87366      -1956.18               
     9 r.13                  2175.68             0               
    10 r.14                 -1898.73      -1955.85               
    11 r.15                  175.676             0               
    12 r.16                 -1762.89      -1931.07               
    13 r.17                  175.676             0               
    14 r.18                 -1905.94      -1975.07               
    15 r.19                  2175.68             0               
    16 r.20                 -1957.87      -1960.75               
    17 r.21                  2175.68             0               
    18 r.22                 -1942.87       -1977.9               
    19 r.23                  175.676             0               
    20 r.24                 -34.9451      -1965.27               
    21 r.25                  175.676             0               
    22 r.26                 -1752.64      -1928.32               
    23 r.27                  2175.68             0               
    24 r.28                 -1831.82      -1929.57               
    25 r.29                  2175.68             0               
    26 r.30                 -1824.32       -1928.6               
    27 r.31                  175.676             0               
    28 r.32                 -1761.45      -1929.63               
    29 r.33                  2175.68             0               
    30 r.34                 -1997.83      -1997.83               
    31 r.35                  175.676             0               
    32 r.36                   2.1668      -1966.95               
    33 r.37                        1             1             = 
    34 r.38                        1             1             = 
    35 r.39                        1             1             = 
    36 r.40                        1             1             = 
    37 r.41                        1             1             = 
    38 r.42                        1             1             = 
    39 r.43                        1             1             = 
    40 r.44                        1             1             = 
    41 r.45                  29.8576       29.8576               
    42 r.46                 -29.8576      -1973.16               
    43 r.47                  1914.12       43.8188               
    44 r.48                 -1914.12      -1959.38               
    45 r.49                  96.1074       44.1484               
    46 r.50                 -96.1074      -1973.16               
    47 r.51                  142.361       68.9273               
    48 r.52                 -142.361      -1959.38               
    49 r.53                  82.8935       24.9345               
    50 r.54                 -76.8935      -1973.16               
    51 r.55                  1953.38       39.2521               
    52 r.56                 -1959.38      -1959.38               
    53 r.57                   51.959       22.1014               
    54 r.58                  -51.959      -1973.16               
    55 r.59                   1870.3       34.7259               
    56 r.60                  -1870.3      -1959.38               
    57 r.61                 -1757.81      -1925.32               
    58 r.62                 -1836.98      -1926.57               
    59 r.63                 -1847.39      -1925.32               
    60 r.64                 -1926.57      -1926.57               
    61 r.65                  170.509       71.4013               
    62 r.66                 -170.509      -1973.16               
    63 r.67                  143.802       70.3683               
    64 r.68                 -143.802      -1959.38               
    65 r.69                        3      -1970.16               
    66 r.70                 -1907.42      -1956.38               
    67 r.71                        3      -1970.16               
    68 r.72                 -1907.42      -1956.38               
    69 r.73                  1970.14       26.8432               
    70 r.74                 -1970.14      -1970.14               
    71 r.75                  85.8771       40.6249               
    72 r.76                 -85.8771      -1956.18               
    73 r.77                  66.2498       44.1484               
    74 r.78                 -66.2498      -1970.14               
    75 r.79                  228.238       68.9273               
    76 r.80                 -228.238      -1956.18               
    77 r.81                  53.0359       24.9345               
    78 r.82                 -47.0359      -1970.14               
    79 r.83                  39.2521       39.2521               
    80 r.84                 -45.2521      -1956.18               
    81 r.85                  22.1014       22.1014               
    82 r.86                 -22.1014      -1970.14               
    83 r.87                  1956.18       34.7259               
    84 r.88                 -1956.18      -1956.18               
    85 r.89                  212.336       71.6847               
    86 r.90                 -212.336      -1970.14               
    87 r.91                  159.311        70.434               
    88 r.92                 -159.311      -1956.18               
    89 r.93                 -1859.35       -1925.6               
    90 r.94                 -1796.47      -1926.63               
    91 r.95                  -1833.2       -1925.6               
    92 r.96                 -1770.32      -1926.63               
    93 r.97                 -1967.14      -1967.14               
    94 r.98                  6.70686      -1953.18               
    95 r.99                 -1967.14      -1967.14               
    96 r.100                 6.70686      -1953.18               
    97 r.101                 1903.89       26.8432               
    98 r.102                -1903.89      -1955.85               
    99 r.103                 1857.64       40.6249               
   100 r.104                -1857.64      -1931.07               
   101 r.105                 1933.75       29.8576               
   102 r.106                -1933.75      -1955.85               
   103 r.107                 1771.76       43.8188               
   104 r.108                -1771.76      -1931.07               
   105 r.109                 19.2139      -1952.85               
   106 r.110                 155.052      -1928.07               
   107 r.111                -1952.85      -1952.85               
   108 r.112                -1817.01      -1928.07               
   109 r.113                 1955.85       22.1014               
   110 r.114                -1955.85      -1955.85               
   111 r.115                 1727.94       34.7259               
   112 r.116                -1727.94      -1931.07               
   113 r.117                 146.086       71.6847               
   114 r.118                -146.086      -1955.85               
   115 r.119                 1931.07        70.434               
   116 r.120                -1931.07      -1931.07               
   117 r.121                 -1925.6       -1925.6               
   118 r.122                -1862.72      -1926.63               
   119 r.123                -61.4365       -1925.6               
   120 r.124                   1.441      -1926.63               
   121 r.125                -1900.89      -1952.85               
   122 r.126                -1765.05      -1928.07               
   123 r.127                -1900.89      -1952.85               
   124 r.128                -1765.05      -1928.07               
   125 r.129                 1923.11       26.8432               
   126 r.130                -1923.11      -1975.07               
   127 r.131                 40.6249       40.6249               
   128 r.132                -40.6249      -1960.75               
   129 r.133                 1952.96       29.8576               
   130 r.134                -1952.96      -1975.07               
   131 r.135                 1954.75       43.8188               
   132 r.136                -1954.75      -1960.75               
   133 r.137                 19.2139      -1952.85               
   134 r.138                 155.052      -1928.07               
   135 r.139                -1952.85      -1952.85               
   136 r.140                -1817.01      -1928.07               
   137 r.141                 1975.07       22.1014               
   138 r.142                -1975.07      -1975.07               
   139 r.143                 1910.93       34.7259               
   140 r.144                -1910.93      -1960.75               
   141 r.145                   165.3       71.6847               
   142 r.146                  -165.3      -1975.07               
   143 r.147                 114.059        70.434               
   144 r.148                -114.059      -1960.75               
   145 r.149                 93.6152       -1925.6               
   146 r.150                 156.493      -1926.63               
   147 r.151                -1878.45       -1925.6               
   148 r.152                -1815.57      -1926.63               
   149 r.153                -1920.11      -1969.07               
   150 r.154                -1948.04      -1954.75               
   151 r.155                -1920.11      -1969.07               
   152 r.156                -1948.04      -1954.75               
   153 r.157                 1948.04       26.8432               
   154 r.158                -1948.04       -1977.9               
   155 r.159                 129.696       40.6249               
   156 r.160                -129.696      -1965.27               
   157 r.161                  1977.9       29.8576               
   158 r.162                 -1977.9       -1977.9               
   159 r.163                 43.8188       43.8188               
   160 r.164                -43.8188      -1965.27               
   161 r.165                 44.1484       44.1484               
   162 r.166                -44.1484       -1977.9               
   163 r.167                 272.057       68.9273               
   164 r.168                -272.057      -1965.27               
   165 r.169                 30.9345       24.9345               
   166 r.170                -24.9345       -1977.9               
   167 r.171                 83.0709       39.2521               
   168 r.172                -89.0709      -1965.27               
   169 r.173                -1809.77      -1925.32               
   170 r.174                -1888.94      -1926.57               
   171 r.175                -1717.69      -1925.32               
   172 r.176                -1796.87      -1926.57               
   173 r.177                -1881.45       -1925.6               
   174 r.178                -1818.57      -1926.63               
   175 r.179                -1789.38       -1925.6               
   176 r.180                 -1726.5      -1926.63               
   177 r.181                -1945.04       -1971.9               
   178 r.182                -37.1119      -1959.27               
   179 r.183                -1945.04       -1971.9               
   180 r.184                -37.1119      -1959.27               
   181 r.185                -1757.81      -1925.32               
   182 r.186                -1836.98      -1926.57               
   183 r.187                -1847.39      -1925.32               
   184 r.188                -1926.57      -1926.57               
   185 r.189                 1787.66       29.8576               
   186 r.190                -1787.66      -1928.32               
   187 r.191                 1840.69       43.8188               
   188 r.192                -1840.69      -1929.57               
   189 r.193                 1853.91       44.1484               
   190 r.194                -1853.91      -1928.32               
   191 r.195                 68.9273       68.9273               
   192 r.196                -68.9273      -1929.57               
   193 r.197                  1840.7       24.9345               
   194 r.198                 -1834.7      -1928.32               
   195 r.199                 1879.94       39.2521               
   196 r.200                -1885.94      -1929.57               
   197 r.201                -1809.77      -1925.32               
   198 r.202                -1888.94      -1926.57               
   199 r.203                -1717.69      -1925.32               
   200 r.204                -1796.87      -1926.57               
   201 r.205                 1928.32       71.4013               
   202 r.206                -1928.32      -1928.32               
   203 r.207                 70.3683       70.3683               
   204 r.208                -70.3683      -1929.57               
   205 r.209                 1829.49       26.8432               
   206 r.210                -1829.49       -1928.6               
   207 r.211                  1856.2       40.6249               
   208 r.212                 -1856.2      -1929.63               
   209 r.213                -1859.35       -1925.6               
   210 r.214                -1796.47      -1926.63               
   211 r.215                 -1833.2       -1925.6               
   212 r.216                -1770.32      -1926.63               
   213 r.217                 -1925.6       -1925.6               
   214 r.218                -1862.72      -1926.63               
   215 r.219                -61.4365       -1925.6               
   216 r.220                   1.441      -1926.63               
   217 r.221                 93.6152       -1925.6               
   218 r.222                 156.493      -1926.63               
   219 r.223                -1878.45       -1925.6               
   220 r.224                -1815.57      -1926.63               
   221 r.225                -1881.45       -1925.6               
   222 r.226                -1818.57      -1926.63               
   223 r.227                -1789.38       -1925.6               
   224 r.228                 -1726.5      -1926.63               
   225 r.229                 71.6847       71.6847               
   226 r.230                -71.6847       -1928.6               
   227 r.231                 1929.63        70.434               
   228 r.232                -1929.63      -1929.63               
   229 r.233                       3      -1970.16               
   230 r.234                -1907.42      -1956.38               
   231 r.235                       3      -1970.16               
   232 r.236                -1907.42      -1956.38               
   233 r.237                -1967.14      -1967.14               
   234 r.238                 6.70686      -1953.18               
   235 r.239                -1967.14      -1967.14               
   236 r.240                 6.70686      -1953.18               
   237 r.241                -1900.89      -1952.85               
   238 r.242                -1765.05      -1928.07               
   239 r.243                -1900.89      -1952.85               
   240 r.244                -1765.05      -1928.07               
   241 r.245                -1920.11      -1969.07               
   242 r.246                -1948.04      -1954.75               
   243 r.247                -1920.11      -1969.07               
   244 r.248                -1948.04      -1954.75               
   245 r.249                -1945.04       -1971.9               
   246 r.250                -37.1119      -1959.27               
   247 r.251                -1945.04       -1971.9               
   248 r.252                -37.1119      -1959.27               

   No. Column name       Activity     Lower bound   Upper bound
------ ------------    ------------- ------------- -------------
     1 tt                    175.676             0               
     2 s_1_1        *              0             0             1 
     3 t_1_1                 170.509             0               
     4 s_1_6        *              0             0             1 
     5 s_2_1        *              1             0             1 
     6 t_2_1                 80.9248             0               
     7 s_2_6        *              1             0             1 
     8 s_1_2        *              1             0             1 
     9 t_1_2                 140.651             0               
    10 s_1_7        *              1             0             1 
    11 s_2_2        *              0             0             1 
    12 t_2_2                 166.802             0               
    13 s_2_7        *              0             0             1 
    14 s_1_3        *              1             0             1 
    15 t_1_3                 74.4013             0               
    16 s_2_3        *              0             0             1 
    17 t_2_3                 1938.56             0               
    18 s_1_4        *              0             0             1 
    19 t_1_4                 2093.62             0               
    20 s_2_4        *              1             0             1 
    21 t_2_4                  121.55             0               
    22 s_1_5        *              1             0             1 
    23 t_1_5                  118.55             0               
    24 s_2_5        *              0             0             1 
    25 t_2_5                 210.621             0               
    26 t_1_6                 1928.32             0               
    27 t_2_6                 7.49081             0               
    28 t_1_7                       0             0               
    29 t_2_7                 1937.12             0               
    30 s_1_8        *              1             0             1 
    31 t_1_8                 173.509             0               
    32 s_2_8        *              0             0             1 
    33 t_2_8                 173.509             0               
    34 u_1_1_2      *              0             0             1 
    35 u_2_1_2      *              1             0             1 
    36 u_1_1_3      *              0             0             1 
    37 u_2_1_3      *              1             0             1 
    38 u_1_1_4      *              1             0             1 
    39 u_2_1_4      *              1             0             1 
    40 u_1_1_5      *              0             0             1 
    41 u_2_1_5      *              1             0             1 
    42 u_1_1_7      *              0             0             1 
    43 u_2_1_7      *              1             0             1 
    44 u_1_2_1      *              1             0             1 
    45 u_2_2_1      *              0             0             1 
    46 u_1_2_3      *              0             0             1 
    47 u_2_2_3      *              1             0             1 
    48 u_1_2_4      *              1             0             1 
    49 u_2_2_4      *              0             0             1 
    50 u_1_2_5      *              0             0             1 
    51 u_2_2_5      *              1             0             1 
    52 u_1_2_6      *              1             0             1 
    53 u_2_2_6      *              0             0             1 
    54 u_1_3_1      *              1             0             1 
    55 u_2_3_1      *              0             0             1 
    56 u_1_3_2      *              1             0             1 
    57 u_2_3_2      *              0             0             1 
    58 u_1_3_5      *              1             0             1 
    59 u_2_3_5      *              0             0             1 
    60 u_1_3_6      *              1             0             1 
    61 u_2_3_6      *              0             0             1 
    62 u_1_4_1      *              0             0             1 
    63 u_2_4_1      *              0             0             1 
    64 u_1_4_2      *              0             0             1 
    65 u_2_4_2      *              1             0             1 
    66 u_1_4_5      *              0             0             1 
    67 u_2_4_5      *              1             0             1 
    68 u_1_4_6      *              0             0             1 
    69 u_2_4_6      *              0             0             1 
    70 u_1_5_1      *              1             0             1 
    71 u_2_5_1      *              0             0             1 
    72 u_1_5_2      *              1             0             1 
    73 u_2_5_2      *              0             0             1 
    74 u_1_5_3      *              0             0             1 
    75 u_2_5_3      *              1             0             1 
    76 u_1_5_4      *              1             0             1 
    77 u_2_5_4      *              0             0             1 
    78 u_1_6_2      *              0             0             1 
    79 u_2_6_2      *              1             0             1 
    80 u_1_6_3      *              0             0             1 
    81 u_2_6_3      *              1             0             1 
    82 u_1_6_4      *              1             0             1 
    83 u_2_6_4      *              1             0             1 
    84 u_1_6_7      *              0             0             1 
    85 u_2_6_7      *              1             0             1 
    86 u_1_7_1      *              1             0             1 
    87 u_2_7_1      *              0             0             1 
    88 u_1_7_6      *              1             0             1 
    89 u_2_7_6      *              0             0             1 

Integer feasibility conditions:

KKT.PE: max.abs.err = 4.55e-13 on row 6
        max.rel.err = 1.06e-16 on row 69
        High quality

KKT.PB: max.abs.err = 2.27e-13 on row 70
        max.rel.err = 3.11e-15 on row 41
        High quality

End of output
